
List of user-set options:

                                    Name   Value                used
                           linear_solver = ma57                  yes
                  ma57_automatic_scaling = yes                   yes
                                max_iter = 2000                  yes
                             mu_strategy = adaptive              yes
                             output_file = DynamicOptimization_lMtildestateIPOPTinfo.txt  yes
                             print_level = 5                     yes
                      print_user_options = yes                   yes
                                     tol = 1e-006                yes
This is Ipopt version 3.11.0, running with linear solver ma57.

Number of nonzeros in equality constraint Jacobian...:    35911
Number of nonzeros in inequality constraint Jacobian.:       36
Number of nonzeros in Lagrangian Hessian.............:    15750

Reallocating memory for MA57: lfact (449679)
Total number of variables............................:     8209
                     variables with only lower bounds:        0
                variables with lower and upper bounds:     8209
                     variables with only upper bounds:        0
Total number of equality constraints.................:     6301
Total number of inequality constraints...............:       19
        inequality constraints with only lower bounds:        0
   inequality constraints with lower and upper bounds:       19
        inequality constraints with only upper bounds:        0

iter    objective    inf_pr   inf_du lg(mu)  ||d||  lg(rg) alpha_du alpha_pr  ls
   0 9.9999900e-003 1.65e+003 2.21e-003   0.0 0.00e+000    -  0.00e+000 0.00e+000   0
   1 9.9990000e-005 1.58e+003 1.64e+000  -5.9 1.46e+000    -  6.31e-002 4.24e-002h  1
   2 4.3298402e-004 1.54e+003 6.15e+000  -6.0 3.53e+000    -  7.90e-003 2.68e-002h  1
   3 2.2009599e-002 1.54e+003 8.02e+004   0.4 3.26e+001   2.0 9.61e-001 6.62e-004f  1
   4 2.2140591e-002 1.54e+003 8.02e+004   2.3 8.85e+001    -  1.62e-018 1.28e-018H  1
   5 2.2715952e-002 1.65e+003 3.48e+005   1.2 7.01e+000    -  1.35e-001 4.70e-002f  2
   6 2.4496412e-002 1.65e+003 3.48e+005   0.5 9.23e+001   1.5 4.01e-006 3.94e-006H  1
   7 2.4898457e-002 1.62e+003 3.41e+005   0.5 2.05e+001    -  2.64e-002 1.94e-002f  1
   8 2.5289037e-002 1.58e+003 3.34e+005   0.5 2.19e+001   1.9 2.57e-002 2.31e-002f  1
   9 2.5572826e-002 1.54e+003 3.25e+005   0.5 1.92e+001    -  1.18e-002 2.57e-002f  1
iter    objective    inf_pr   inf_du lg(mu)  ||d||  lg(rg) alpha_du alpha_pr  ls
  10 2.5134973e-002 1.52e+003 3.19e+005   0.5 2.57e+001    -  4.57e-003 1.89e-002f  1
  11 2.5418899e-002 1.47e+003 3.09e+005   0.5 1.68e+001   1.5 2.59e-002 3.34e-002f  1
  12 2.5504817e-002 1.41e+003 2.98e+005   0.5 1.84e+001    -  6.45e-003 3.57e-002f  1
  13 2.5611366e-002 1.37e+003 2.88e+005   0.5 1.38e+001   1.0 1.22e-002 3.48e-002f  1
  14 2.5686287e-002 1.35e+003 2.84e+005   0.5 1.54e+001   1.4 6.90e-003 1.37e-002f  1
  15 2.5690311e-002 1.35e+003 2.84e+005   0.5 3.28e+001   1.8 2.34e-002 3.47e-004h  1
  16 2.5739936e-002 1.34e+003 2.82e+005   0.5 3.91e+001   1.4 1.64e-002 5.27e-003f  1
  17 2.5779625e-002 1.34e+003 2.82e+005   0.5 8.44e+001   1.8 5.78e-003 2.00e-003h  1
  18 2.5785623e-002 1.34e+003 2.81e+005   0.5 1.82e+002   1.3 9.90e-004 2.89e-004h  1
  19 2.5799498e-002 1.34e+003 2.81e+005   0.5 2.74e+002   1.7 6.22e-004 4.32e-004h  1
iter    objective    inf_pr   inf_du lg(mu)  ||d||  lg(rg) alpha_du alpha_pr  ls
  20 2.5801091e-002 1.34e+003 2.81e+005   0.5 7.03e+002   1.3 5.00e-004 1.04e-004h  1
  21 2.5803292e-002 1.34e+003 2.81e+005   0.5 4.70e+002   1.7 3.74e-004 3.51e-005h  1
  22 2.5806236e-002 1.34e+003 5.93e+005   0.5 6.41e+002   1.2 5.38e-004 5.79e-005h  1
  23r2.5806236e-002 1.34e+003 1.00e+003   2.4 0.00e+000   1.6 0.00e+000 1.87e-007R  2
  24r2.5784172e-002 1.17e+003 9.99e+002  -3.9 1.76e+005    -  1.09e-003 1.11e-003f  1
  25 2.5794738e-002 1.17e+003 6.71e+002   0.5 4.25e+002    -  1.95e-004 3.44e-006f  1
  26 2.5849137e-002 1.17e+003 1.13e+003   0.5 8.35e+002    -  3.04e-005 1.68e-005f  1
  27r2.5849137e-002 1.17e+003 9.99e+002   2.1 0.00e+000    -  0.00e+000 3.51e-007R  4
  28r6.9749796e-002 1.15e+003 9.99e+002   2.1 8.69e+004    -  2.74e-004 3.58e-004f  1
  29 6.9753418e-002 1.15e+003 1.07e+002   0.5 1.11e+002    -  5.75e-004 1.12e-006f  4
iter    objective    inf_pr   inf_du lg(mu)  ||d||  lg(rg) alpha_du alpha_pr  ls
  30 7.0496091e-002 1.15e+003 1.37e+002   0.5 6.35e+002    -  3.50e-004 2.40e-004f  1
  31 7.2642493e-002 1.15e+003 3.17e+002   0.5 4.61e+002    -  6.02e-005 6.85e-004f  1
  32 7.2644177e-002 1.15e+003 2.39e+002   0.5 5.20e+002    -  6.25e-005 4.94e-007h  5
  33 7.8210970e-002 1.15e+003 2.35e+002   0.5 2.37e+002    -  2.47e-005 1.72e-003f  1
  34 7.8396604e-002 1.15e+003 3.45e+002   0.5 3.09e+002   1.2 1.55e-004 1.11e-004h  1
  35 8.1757881e-002 1.15e+003 4.35e+002   0.5 5.52e+002    -  3.09e-004 9.98e-004f  1
  36 8.3080004e-002 1.15e+003 5.29e+002   0.5 8.93e+002    -  4.17e-005 3.89e-004f  1
  37 8.7233333e-002 1.15e+003 3.36e+003   0.5 4.18e+002    -  2.49e-004 1.32e-003f  1
  38 8.7643439e-002 1.15e+003 3.31e+003   0.5 1.72e+003    -  1.82e-004 9.15e-005f  1
  39 8.7975042e-002 1.15e+003 3.33e+003   0.5 1.36e+003    -  4.41e-006 5.40e-005f  1
iter    objective    inf_pr   inf_du lg(mu)  ||d||  lg(rg) alpha_du alpha_pr  ls
  40 8.8818761e-002 1.15e+003 3.53e+003   0.5 3.98e+001   1.6 4.00e-003 1.13e-003f  1
  41 9.0030546e-002 1.14e+003 5.66e+003   0.5 2.42e+001   2.0 1.84e-002 4.91e-003f  1
  42 9.0659761e-002 1.11e+003 2.66e+004   0.5 1.79e+001   2.4 1.06e-002 2.85e-002f  1
  43 1.2061249e-001 1.10e+003 2.55e+004   1.5 1.41e+001   2.0 4.04e-002 9.51e-003f  1
  44 1.2060177e-001 1.10e+003 2.55e+004  -5.6 5.32e+001   1.5 5.87e-003 1.81e-004h  1
  45 1.2181258e-001 1.10e+003 2.55e+004   1.5 2.19e+002   1.0 4.72e-003 5.42e-004f  1
  46 1.9371226e-001 1.09e+003 2.36e+004   2.4 2.34e+002   1.4 8.94e-003 3.70e-003f  1
  47 4.8050598e-001 1.08e+003 1.88e+004   2.7 1.25e+002    -  2.57e-004 6.76e-003f  1
  48 1.2158884e+000 1.06e+003 2.40e+004   2.5 9.58e+001    -  1.65e-002 1.72e-002f  1
  49 1.2237196e+000 1.06e+003 2.38e+004  -5.0 1.11e+001    -  5.16e-002 5.24e-003h  1
iter    objective    inf_pr   inf_du lg(mu)  ||d||  lg(rg) alpha_du alpha_pr  ls
  50 1.2256282e+000 1.06e+003 2.37e+004  -5.0 4.06e+001    -  6.38e-003 9.13e-004h  1
  51 1.2390250e+000 1.05e+003 2.18e+004   2.9 1.17e+002   2.8 3.09e-003 4.45e-003f  1
  52 2.0596089e+000 1.05e+003 2.32e+004   3.0 3.77e+002    -  3.83e-003 2.18e-003f  1
  53 2.0453802e+000 1.05e+003 2.31e+004  -4.8 1.39e+002    -  3.38e-003 2.41e-003h  1
  54 2.4206607e+000 1.03e+003 4.40e+004   1.4 2.97e+001    -  7.94e-003 1.26e-002f  1
  55 2.4205933e+000 1.03e+003 4.39e+004  -4.8 1.23e+003   2.3 5.47e-006 3.64e-005h  1
  56 2.4206047e+000 1.03e+003 4.39e+004  -4.8 3.88e+001   2.7 5.03e-003 4.14e-005h  1
  57 2.4221751e+000 1.03e+003 4.34e+004   3.1 5.72e+001   3.1 9.40e-005 8.79e-004f  1
  58 2.8943290e+000 1.03e+003 4.53e+004   2.1 1.89e+002    -  2.05e-002 2.49e-003f  1
  59 3.4041852e+000 1.82e+004 8.05e+005   2.5 1.82e+002    -  2.59e-003 7.93e-003f  1
iter    objective    inf_pr   inf_du lg(mu)  ||d||  lg(rg) alpha_du alpha_pr  ls
  60 3.4042394e+000 1.82e+004 8.05e+005   1.2 1.53e+002   3.6 8.89e-004 3.00e-004h  1
  61 3.4046308e+000 1.81e+004 8.02e+005   1.2 5.82e+001   4.0 3.12e-002 3.61e-003h  1
  62 3.4063181e+000 1.79e+004 8.34e+005   1.2 7.31e+001   3.5 5.06e-003 1.46e-002h  1
  63 3.5107855e+000 1.79e+004 8.29e+005   1.2 1.45e+002    -  5.39e-003 1.27e-003h  1
  64 3.5967760e+000 1.78e+004 1.12e+006   1.2 5.79e+002    -  4.27e-006 1.23e-003f  1
  65 3.6242119e+000 1.78e+004 1.12e+006   1.2 8.37e+001    -  6.37e-003 3.28e-004h  1
  66 4.8566978e+000 1.76e+004 1.09e+006   1.2 8.36e+001    -  6.85e-005 1.48e-002f  1
  67 4.8567064e+000 1.76e+004 1.09e+006   1.2 8.08e+001   3.9 6.87e-004 6.41e-005h  1
  68r4.8567064e+000 1.76e+004 9.99e+002   4.1 0.00e+000   4.4 0.00e+000 1.18e-007R  2
  69r4.8443270e+000 6.30e+003 9.97e+002  -2.3 6.41e+006    -  2.41e-003 1.81e-003f  1
iter    objective    inf_pr   inf_du lg(mu)  ||d||  lg(rg) alpha_du alpha_pr  ls
  70 4.8898110e+000 6.30e+003 2.09e+000   1.2 1.88e+002    -  2.16e-004 4.80e-004f  1
  71 5.1026556e+000 6.28e+003 1.30e+001   1.2 9.58e+001    -  6.07e-003 2.22e-003f  1
  72 5.1335303e+000 6.28e+003 4.22e+001   1.2 1.10e+002    -  1.07e-002 2.81e-004h  1
  73 5.1899238e+000 6.28e+003 6.48e+001   1.2 1.35e+002    -  2.08e-003 4.17e-004f  1
  74 6.9190031e+000 6.20e+003 4.65e+002   1.2 1.42e+002    -  3.20e-002 1.21e-002f  1
  75 8.6965929e+000 6.18e+003 7.40e+002   1.2 4.57e+002    -  5.14e-003 3.89e-003h  1
  76 3.2193025e+001 5.92e+003 1.47e+005   1.2 5.44e+002    -  2.01e-002 4.32e-002f  1
  77 5.3462626e+001 5.68e+003 1.41e+005   1.2 5.26e+002    -  3.24e-002 4.04e-002f  1
  78 1.5182617e+002 4.17e+003 1.00e+005   1.2 3.18e+002    -  7.89e-002 3.09e-001f  1
  79 1.5185432e+002 2.09e+003 3.24e+005   1.2 7.80e-001   3.9 2.87e-001 6.91e-001f  1
iter    objective    inf_pr   inf_du lg(mu)  ||d||  lg(rg) alpha_du alpha_pr  ls
  80 1.5186245e+002 1.57e+003 7.59e+005   1.2 5.08e-001   4.3 9.94e-001 2.85e-001h  1
  81 1.5188288e+002 5.53e+002 7.62e+007   1.2 4.84e-001   4.7 9.67e-001 1.00e+000h  1
  82 1.5188300e+002 4.93e+002 6.84e+007   1.1 4.30e-001   6.1 1.00e+000 1.14e-001h  1
  83 1.5188311e+002 4.48e+002 6.30e+007   0.6 3.51e-001   6.5 1.00e+000 9.56e-002h  1
  84 1.5188311e+002 4.46e+002 6.27e+007   0.4 3.39e-001   6.9 1.00e+000 3.60e-003h  1
  85 1.5188330e+002 3.58e+002 4.70e+007   1.9 6.72e-001   6.4 1.00e+000 2.13e-001h  1
  86 1.5188401e+002 1.03e+002 2.25e+008   3.1 2.26e-001   6.9 4.66e-001 1.00e+000f  1
  87 1.5188355e+002 1.85e+001 7.73e+007   3.1 2.86e-001   6.4 8.73e-001 1.00e+000f  1
  88 1.5188389e+002 6.35e+000 3.33e+007   3.1 4.65e-001   5.9 2.61e-001 6.56e-001f  1
  89 1.5188445e+002 1.88e+000 7.49e+006   2.3 8.86e-002   5.4 1.00e+000 1.00e+000f  1
iter    objective    inf_pr   inf_du lg(mu)  ||d||  lg(rg) alpha_du alpha_pr  ls
  90 1.5188450e+002 8.42e-002 9.38e+004   1.8 1.46e-002   5.0 1.00e+000 1.00e+000f  1
  91 1.5188446e+002 6.70e-005 3.14e+002  -0.1 1.39e-003   4.5 9.99e-001 1.00e+000h  1
  92 1.5188446e+000 4.71e+001 1.54e+002  -1.1 1.51e+002    -  5.83e-001 9.95e-001f  1
  93 1.5413756e+000 4.27e+001 7.50e+002  -0.4 3.42e-001   4.0 9.39e-001 9.55e-002h  1
  94 1.6450552e+000 2.84e+001 3.59e+003  -0.8 3.11e-001   3.5 1.00e+000 3.74e-001h  1
  95 1.8463336e+000 1.76e+001 1.53e+003  -0.9 4.72e-001   3.1 1.00e+000 4.26e-001h  1
  96 1.8482173e+000 1.75e+001 1.59e+003  -6.9 7.08e+000   2.6 2.10e-002 2.09e-003H  1
  97 2.0915580e+000 9.99e+000 5.10e+002  -1.0 5.01e-001   3.0 1.00e+000 4.86e-001h  1
  98 2.1134114e+000 9.37e+000 5.37e+002  -1.5 3.44e-001   3.4 1.00e+000 6.35e-002h  1
  99 2.2971472e+000 6.41e+000 5.19e+002  -0.2 5.39e-001   3.0 1.00e+000 3.41e-001h  1
iter    objective    inf_pr   inf_du lg(mu)  ||d||  lg(rg) alpha_du alpha_pr  ls
 100 2.3919378e+000 4.77e+000 6.05e+002  -0.8 3.51e-001   3.4 1.00e+000 2.70e-001h  1
 101 2.8215421e+000 1.51e+000 6.79e+002  -0.5 5.44e-001   2.9 1.00e+000 7.90e-001h  1
 102 3.2990689e+000 9.54e-002 1.27e+002  -1.2 4.78e-001   2.4 1.00e+000 1.00e+000h  1
 103 3.3289248e+000 5.79e-004 2.65e+000  -2.9 2.99e-002   1.9 1.00e+000 1.00e+000h  1
 104 3.3016177e+000 1.18e-004 8.07e-001  -4.7 2.73e-002   1.5 1.00e+000 1.00e+000h  1
 105 3.2159499e+000 1.17e-003 8.44e-001  -6.4 8.57e-002   1.0 1.00e+000 1.00e+000f  1
 106 3.0701769e+000 4.07e-003 8.32e-001  -6.1 2.51e-001   0.5 1.00e+000 5.81e-001f  1
 107 2.9332859e+000 6.69e-003 8.21e-001  -5.6 7.05e-001   0.0 1.00e+000 1.94e-001f  1
 108 2.7022894e+000 1.59e-002 8.03e-001  -5.2 1.87e+000  -0.4 1.00e+000 1.24e-001f  1
 109 2.2911974e+000 4.98e-002 7.71e-001  -5.0 3.99e+000  -0.9 1.00e+000 1.03e-001f  1
iter    objective    inf_pr   inf_du lg(mu)  ||d||  lg(rg) alpha_du alpha_pr  ls
 110 1.8695205e+000 9.54e-002 6.93e-001  -4.6 1.52e+000  -0.5 1.00e+000 2.78e-001f  1
 111 1.2980342e+000 2.48e-001 5.19e-001  -3.8 1.68e+000  -1.0 1.00e+000 3.41e-001f  1
 112 1.0896345e+000 2.15e+001 3.09e+000  -3.2 6.85e-001  -1.4 1.55e-001 1.00e+000h  1
 113 1.1583418e+000 9.59e+000 5.28e+000  -3.3 4.30e-001  -1.0 1.00e+000 8.99e-001h  1
 114 1.0812419e+000 5.35e+000 5.92e+000  -3.4 8.69e-001  -1.5 1.92e-001 6.08e-001h  1
 115 1.0840051e+000 6.60e+000 6.48e+000  -2.9 8.86e-001  -1.1 1.00e+000 1.00e+000h  1
 116 1.1228082e+000 7.46e+001 9.41e+001  -2.4 1.06e+000  -0.6 8.55e-001 1.00e+000h  1
 117 1.1465926e+000 4.75e+001 5.31e+001  -2.5 9.15e-001  -0.2 4.56e-001 4.38e-001h  1
 118 1.1873761e+000 2.99e+001 3.45e+001  -2.5 5.13e-001  -0.7 1.00e+000 4.80e-001h  1
 119 1.2168771e+000 1.60e+001 9.09e+000  -2.5 7.66e-001  -1.2 9.21e-001 8.21e-001h  1
iter    objective    inf_pr   inf_du lg(mu)  ||d||  lg(rg) alpha_du alpha_pr  ls
 120 1.2383882e+000 1.28e+001 5.36e+000  -2.5 1.30e+000  -0.7 2.01e-001 2.20e-001h  1
 121 1.1828102e+000 3.13e+000 3.65e+001  -2.5 5.02e-001   0.6 2.33e-002 7.68e-001h  1
 122 1.2451870e+000 2.54e-001 4.39e+001  -3.3 1.61e-001   1.0 8.79e-001 1.00e+000h  1
 123 1.2779173e+000 2.16e-002 1.42e+000  -2.4 4.14e-002   0.5 9.93e-001 1.00e+000h  1
 124 1.2349417e+000 1.49e-002 8.24e-001  -3.1 4.30e-002   0.1 9.99e-001 1.00e+000h  1
 125 1.1853968e+000 1.62e-002 1.88e-002  -4.1 4.95e-002  -0.4 1.00e+000 1.00e+000h  1
 126 1.1348555e+000 9.58e-003 7.01e-003  -4.8 5.19e-002  -0.9 9.98e-001 1.00e+000h  1
 127 9.7572430e-001 7.15e-002 2.44e-002  -5.3 1.59e-001  -1.4 1.00e+000 1.00e+000h  1
 128 7.3853841e-001 2.56e-001 4.17e-002  -4.2 3.07e-001  -1.9 1.00e+000 7.71e-001h  1
 129 5.1658263e-001 6.38e-001 3.87e-002  -3.9 2.87e-001  -2.3 1.00e+000 7.74e-001h  1
iter    objective    inf_pr   inf_du lg(mu)  ||d||  lg(rg) alpha_du alpha_pr  ls
 130 3.0559262e-001 9.15e+000 1.07e-001  -4.1 5.30e-001    -  6.77e-001 1.00e+000h  1
 131 2.8637319e-001 1.42e+000 1.55e-002  -4.8 1.28e-001  -2.8 1.00e+000 1.00e+000h  1
 132 2.6312769e-001 1.29e+001 8.13e-002  -5.0 3.32e-001  -3.3 1.00e+000 1.00e+000h  1
 133 3.3623761e-001 8.67e+000 4.26e-002  -4.3 3.83e-001    -  1.00e+000 1.00e+000h  1
 134 3.2534853e-001 1.08e+000 1.40e-002  -4.3 1.77e-001  -2.9 1.00e+000 1.00e+000h  1
 135 2.9441505e-001 1.87e+000 2.47e-002  -4.5 3.11e-001  -3.3 9.71e-001 1.00e+000h  1
 136 2.6240692e-001 4.01e-001 6.43e-003  -5.3 9.67e-002  -2.9 1.00e+000 1.00e+000h  1
 137 2.9389006e-001 5.00e+000 5.39e-003  -4.6 4.19e-001    -  1.00e+000 1.00e+000h  1
 138 2.8387803e-001 2.60e+000 1.99e-003  -4.7 2.14e-001    -  1.00e+000 1.00e+000h  1
 139 2.8376593e-001 1.06e-001 1.67e-004  -4.7 1.21e-001    -  1.00e+000 1.00e+000h  1
iter    objective    inf_pr   inf_du lg(mu)  ||d||  lg(rg) alpha_du alpha_pr  ls
 140 2.5694891e-001 5.11e-001 2.97e-003  -5.4 1.86e-001    -  1.00e+000 9.99e-001h  1
 141 2.5568702e-001 4.29e-001 1.57e-003  -5.4 3.96e-001    -  1.00e+000 1.00e+000h  1
 142 2.5227936e-001 1.10e-001 4.91e-004  -5.8 3.32e-001    -  9.99e-001 1.00e+000h  1
 143 2.5101019e-001 2.88e-001 6.66e-004  -6.2 1.96e-001    -  1.00e+000 1.00e+000h  1
 144 2.5044129e-001 2.19e+000 2.94e-003  -6.5 1.24e-001    -  1.00e+000 1.00e+000h  1
 145 2.5011721e-001 7.74e-002 2.57e-004  -7.0 2.96e-002  -3.4 1.00e+000 1.00e+000h  1
 146 2.5025281e-001 5.18e-001 4.76e-004  -6.7 4.61e-002  -3.9 1.00e+000 1.00e+000h  1
 147 2.5019723e-001 2.00e+000 2.53e-003  -6.8 1.72e-001  -4.3 1.00e+000 6.80e-001h  1
 148 2.5017262e-001 2.68e-001 6.85e-004  -6.8 1.03e-001    -  1.00e+000 1.00e+000h  1
 149 2.5017539e-001 7.06e-003 2.95e-005  -6.8 6.52e-002    -  1.00e+000 1.00e+000h  1
iter    objective    inf_pr   inf_du lg(mu)  ||d||  lg(rg) alpha_du alpha_pr  ls
 150 2.5001255e-001 7.34e-002 1.32e-004  -7.2 1.61e-001    -  1.00e+000 1.00e+000h  1
 151 2.4994079e-001 3.07e-002 6.37e-005  -7.9 2.88e-001    -  1.00e+000 1.00e+000h  1
 152 2.4993100e-001 3.47e-003 1.39e-005  -8.3 1.50e-001    -  1.00e+000 1.00e+000h  1
 153 2.4992477e-001 7.72e-004 2.98e-006  -8.9 1.44e-001    -  1.00e+000 1.00e+000h  1
 154 2.4992377e-001 7.92e-005 8.16e-007  -9.4 9.35e-002    -  1.00e+000 1.00e+000h  1
 155 2.4992340e-001 7.08e-006 5.52e-008 -10.0 2.79e-002    -  1.00e+000 1.00e+000h  1
 156 2.4992333e-001 3.89e-007 5.06e-006 -10.4 6.87e-003    -  9.97e-001 1.00e+000h  1
 157 2.4992330e-001 8.31e-008 1.74e-009 -11.0 2.23e-003    -  1.00e+000 1.00e+000h  1

Number of Iterations....: 157

                                   (scaled)                 (unscaled)
Objective...............:  2.4992329972951827e-001   2.4992329972951827e-001
Dual infeasibility......:  1.7441781614307889e-009   1.7441781614307889e-009
Constraint violation....:  4.1013560768548202e-008   8.3132125183738026e-008
Complementarity.........:  2.7383766826232295e-011   2.7383766826232295e-011
Overall NLP error.......:  4.1013560768548202e-008   8.3132125183738026e-008


Number of objective function evaluations             = 176
Number of objective gradient evaluations             = 158
Number of equality constraint evaluations            = 179
Number of inequality constraint evaluations          = 179
Number of equality constraint Jacobian evaluations   = 161
Number of inequality constraint Jacobian evaluations = 161
Number of Lagrangian Hessian evaluations             = 157
Total CPU secs in IPOPT (w/o function evaluations)   =     16.753
Total CPU secs in NLP function evaluations           =     10.797

EXIT: Optimal Solution Found.
